c WARNING: for repeatability, setting FPU to use double precision
d VARIABLES            138130       
d CONSTRAINTS          582720       
c ============================[ Problem Statistics ]=============================
c |                                                                             |
c |  Number of variables:        138130                                         |
c |  Number of clauses:          582720                                         |
c |  Parse time:                   0.10 s                                       |
c |                                                                             |
c ============================[ Search Statistics ]==============================
c | Conflicts |          ORIGINAL         |          LEARNT          | Progress |
c |           |    Vars  Clauses Literals |    Limit  Clauses Lit/Cl |          |
c ===============================================================================
c |       100 |  109163   508090  1235641 |   186299      100     30 | 20.971 % |
c |       250 |  109163   508090  1235641 |   204929      250     45 | 20.971 % |
c |       475 |  109163   508090  1235641 |   225422      475     66 | 20.971 % |
c |       812 |  109163   508090  1235641 |   247964      812     83 | 20.971 % |
c |      1318 |  109163   508090  1235641 |   272761     1318    107 | 20.971 % |
c |      2077 |  109163   508090  1235641 |   300037     2077     96 | 20.971 % |
c |      3216 |  109163   508090  1235641 |   330041     3216    114 | 20.971 % |
c |      4924 |  109163   508090  1235641 |   363045     4924    116 | 20.971 % |
c |      7486 |  109163   508090  1235641 |   399349     7486    142 | 20.971 % |
c |     11330 |  109163   508090  1235641 |   439284    11330    146 | 20.971 % |
c |     17096 |  109162   508080  1235618 |   483213    17094    145 | 20.972 % |
c |     25745 |  109162   508080  1235618 |   531534    25743    144 | 20.972 % |
c |     38719 |  109161   508070  1235595 |   584688    38715    166 | 20.972 % |
c |     58180 |  109151   507974  1235375 |   643156    58138    165 | 20.980 % |
c |     87372 |  109104   507513  1234317 |   707472    87060    162 | 21.014 % |
c ===============================================================================
c restarts              : 333
c conflicts             : 124545         (2019 /sec)
c decisions             : 692572         (0.00 % random) (11228 /sec)
c propagations          : 275393192      (4464591 /sec)
c conflict literals     : 20228996       (17.05 % deleted)
d RESTARTS             333
d FAILURES             124545       
d NODES                692572       
d BACKTRACKS           692572       
d PROPAGATIONS         275393192    
d NOGOODSIZE           162.42 
d MEMORY               173.00 
d TIME                 61.6839 

s UNSATISFIABLE
